16829
17424
18036
18594
19195
19803
20352
20778
21148
21441
21573
21697
21784
21901
22022
22126
22211
22280
22352
22425
22487
22529
22618
22677
22726
22768
22804
22843
22881
22921
22969
23023
23075
23128
23183
23243
23302
23356
23406
23457
23494
23530
23567
23617
23643
23680
23715
23745
23767
23807
23829
23881
23928
23958
23986
24011
24053
24081
24114
24146
24184
24221
24266
24300
24324
24357
24372
24384
24403
24418
24436
24464
24490
24491
24495
24500
24515
24532
24545
24563
24598
24648
24674
24711
24748
24772
24778
24785
24796
24808
24814
24818
24826
24837
24847
24858
24863
24872
24879
